# Perform a PIMD calculation

# variables
variable temp index 77
variable lbox index 1

# global model settings
units real
atom_style full
pair_style lj/cut 7.5
pair_modify tail no

# box
boundary f f f
region box block 0 ${lbox} 0 ${lbox} 0 ${lbox}
create_box 2 box
read_data INPUTFILE.lmp add merge

# label atoms
labelmap atom 1 H2
labelmap atom 2 C

# masses
mass H2 2.016
mass C  12.01

# LJ parameters
pair_coeff C    C       0.12            3.30
pair_coeff H2   C       0.08126204      3.179
pair_coeff H2   H2      0.06796247      2.960
timestep 0.00001

# pimd settings
group pimdgroup type 2
fix stepper pimdgroup nve
fix mypimd pimdgroup pimd/nvt method nmpimd fmass 1.0 sp 2.0 temp ${temp} nhc 4
#variable type1 atom "type==1"

# output
thermo_style custom step temp press pe ke econserve #density atoms v_iacc v_dacc v_nH2
thermo 1000
dump coordDump all custom 1000 out_type_2.xyz id type x y z vx vy vz ix iy iz fx fy fz

# run
run 2000000